Route #1: 14 49 6 37 87
Route #2: 25 65 78 42 28
Route #3: 71 62 99 98 89
Route #4: 83 51 81
Route #5: 34 64 96 48 26 47 38
Route #6: 93 75
Route #7: 76 55 16 69
Route #8: 68 90 84 66
Route #9: 74 13 4
Route #10: 3 77 63
Route #11: 39 10 18
Route #12: 57 72 36 29 43 45 2 7
Route #13: 19 97 27
Route #14: 59 60 82
Route #15: 35 46 31
Route #16: 17 8
Route #17: 92 9 86
Route #18: 32 33 53 73 95 24
Route #19: 5 12 58
Route #20: 20 41 22 15
Route #21: 50 91 52
Route #22: 30 85 11 79
Route #23: 1 70 54
Route #24: 21 56 94 80
Route #25: 100 61 23
Route #26: 44 67 88 40
Cost 27591.0000
Time 16.0011